db/inputs/3072783442119482208319033148477148.smt2
(set-logic QF_FP)
(declare-const x0 (_ FloatingPoint 8 24))
(declare-const x1 (_ FloatingPoint 8 24))
(declare-const x2 (_ FloatingPoint 8 24))
(declare-const x3 (_ FloatingPoint 8 24))
(declare-const x4 (_ FloatingPoint 8 24))
(declare-const x5 (_ FloatingPoint 8 24))
(declare-const x6 (_ FloatingPoint 8 24))
(declare-const x7 (_ FloatingPoint 8 24))
(declare-const x8 (_ FloatingPoint 8 24))
(declare-const x9 (_ FloatingPoint 8 24))
(declare-const x10 (_ FloatingPoint 8 24))
(declare-const x11 (_ FloatingPoint 8 24))
(declare-const x12 (_ FloatingPoint 8 24))
(declare-const x13 (_ FloatingPoint 8 24))
(declare-const x14 (_ FloatingPoint 8 24))
(declare-const x15 (_ FloatingPoint 8 24))
(declare-const x16 (_ FloatingPoint 8 24))
(declare-const x17 (_ FloatingPoint 8 24))
(assert (fp.lt (fp.mul RNE x0 x15) (fp.div RNE x12 x2)))
(assert (fp.eq (fp.sub RNE x2 x17) (fp.mul RNE x16 x8)))
(assert (fp.lt (fp.add RNE x9 x10) (fp.div RNE x11 x16)))
(assert (fp.gt (fp.sub RNE x4 x5) (fp.neg x9)))
(assert (fp.leq (fp.mul RNE x12 x11) (fp.add RNE x6 x2)))
(assert (fp.geq (fp.sub RNE x13 x1) (fp.sub RNE x6 x0)))
(assert (fp.lt (fp.mul RNE x5 x5) (fp.sub RNE x0 x14)))
(assert (fp.geq (fp.neg x12) (fp.div RNE x14 x17)))
(assert (fp.lt (fp.div RNE x14 x6) (fp.sub RNE x1 x11)))
(assert (fp.gt (fp.mul RNE x7 x2) (fp.neg x6)))
(assert (fp.eq (fp.div RNE x6 x15) (fp.sub RNE x11 x6)))
(assert (fp.eq (fp.div RNE x13 x4) (fp.sub RNE x11 x14)))
(assert (fp.eq (fp.mul RNE x0 x8) (fp.mul RNE x17 x16)))
(assert (fp.leq (fp.neg x17) (fp.sub RNE x5 x12)))
(assert (fp.gt (fp.mul RNE x8 x10) (fp.neg x5)))
(assert (fp.leq (fp.div RNE x5 x15) (fp.neg x6)))
(assert (fp.gt (fp.div RNE x17 x11) (fp.add RNE x15 x16)))
(assert (fp.eq (fp.mul RNE x14 x5) (fp.mul RNE x13 x3)))
(check-sat)
