db/data/3072783442119482208319033148477148.z3.out
sat
-------------------
763.295929232
